n = 10; 

m=10; 

											
22	7	36	29	22	13	34	45	19	13
50	39	14	57	49	12	35	43	12	42
4	27	14	13	35	20	17	44	18	9
46	46	29	4	46	38	19	5	7	36
18	13	20	3	41	40	44	12	14	44
12	21	34	9	7	8	44	20	29	24
41	47	31	42	10	43	17	5	39	37
14	21	31	3	4	18	14	31	11	39
28	16	41	37	30	14	8	30	4	39
4	27	14	13	35	20	17	44	18	9

	 












 
 


 

 
